data_p1 = -1000..1000;
data_p1Set = {0, 1};
data_p2 = {100, 1000, 10000, 100000, 1000000};
data_p2Set = {0, 1};
data_p3 = {100, 1000, 10000, 100000, 1000000};
data_p3Set = {0, 1};
data_p4 = {100, 1000, 10000, 100000, 1000000};
data_p4Set = {0, 1};
data_p5 = {100, 1000, 10000, 100000, 1000000};
data_p5Set = {0, 1};
data_p6 = {1, 3, 2, 4, 0};
data_p6Set = {0, 1};
data_p7 = {1, 3, 2, 4, 0};
data_p7Set = {0, 1};
data_p8 = {1, 3, 2, 4, 0};
data_p8Set = {0, 1};
data_p9 = {1, 3, 2, 4, 0};
data_p9Set = {0, 1};
data_p10 = {1, 3, 2, 4, 0};
data_p10Set = {0, 1};
